% seed = 3644062

mint = 40;
% maxt = 114;

nActs = 22;
dur = [0,2,5,6,8,9,6,6,4,8,7,9,4,2,10,1,9,1,4,4,9,0];

nSkills = 4;
sreq = [| 0,0,0,0,
	| 3,3,0,1,
	| 2,1,0,2,
	| 0,1,2,3,
	| 2,0,3,2,
	| 2,2,3,0,
	| 3,1,0,2,
	| 0,2,2,1,
	| 0,3,2,3,
	| 2,0,2,2,
	| 2,3,2,0,
	| 2,0,1,2,
	| 1,0,3,1,
	| 3,0,2,1,
	| 0,2,2,1,
	| 2,1,3,0,
	| 1,1,2,0,
	| 3,0,1,1,
	| 0,3,1,2,
	| 1,2,3,0,
	| 3,2,3,0,
	| 0,0,0,0, |];

nResources = 20;
mastery = [| false,true,false,false,
	| false,true,false,true,
	| false,true,false,false,
	| true,false,true,true,
	| false,true,false,false,
	| false,true,true,false,
	| true,false,false,true,
	| false,true,true,false,
	| false,false,true,true,
	| false,false,false,true,
	| false,false,false,true,
	| false,true,true,true,
	| false,true,true,true,
	| false,true,true,true,
	| false,true,true,true,
	| false,true,true,true,
	| false,false,true,false,
	| false,true,true,true,
	| false,true,false,false,
	| true,false,false,false, |];

nPrecs = 37;
pred = [1,1,1,2,2,3,3,4,4,5,5,5,6,6,7,7,7,8,8,9,9,10,11,11,12,13,13,13,14,15,15,16,17,18,19,20,21];
succ = [2,3,4,13,6,10,19,12,5,14,7,8,10,12,9,20,16,18,11,17,18,17,20,21,15,17,20,15,16,19,16,21,19,21,22,22,22];

nUnrels = 108;
unpred = [2,2,2,2,2,2,2,2,2,3,3,3,3,3,3,3,3,3,3,3,3,3,3,3,4,4,4,5,5,5,5,5,6,6,6,6,6,6,6,6,7,7,7,7,7,7,7,8,8,8,8,8,8,8,8,8,9,9,9,9,9,9,9,9,10,10,10,10,10,10,10,10,10,11,11,11,11,11,11,11,11,12,12,12,12,12,13,13,14,14,14,14,14,15,15,15,16,16,16,16,17,17,17,18,18,19,19,20];
unsucc = [3,4,5,7,8,9,11,14,18,4,5,6,7,8,9,11,12,13,14,15,16,18,20,21,6,10,13,6,10,12,13,15,7,8,9,11,13,14,18,20,8,10,11,12,13,14,15,9,10,12,13,14,15,16,17,19,10,11,12,13,14,15,16,20,11,12,13,14,15,16,18,20,21,12,13,14,15,16,17,18,19,13,14,17,18,20,14,18,15,17,18,19,20,17,18,20,17,18,19,20,18,20,21,19,20,20,21,21];

USEFUL_RES = [{},
	{1,2,3,4,5,6,7,8,9,10,11,12,13,14,15,16,18,19,20},
	{1,2,3,4,5,6,7,8,9,10,11,12,13,14,15,16,18,19,20},
	{1,2,3,4,5,6,7,8,9,10,11,12,13,14,15,16,17,18,19},
	{2,4,6,7,8,9,10,11,12,13,14,15,16,17,18,20},
	{1,2,3,4,5,6,7,8,9,12,13,14,15,16,17,18,19,20},
	{1,2,3,4,5,6,7,8,9,10,11,12,13,14,15,16,18,19,20},
	{1,2,3,4,5,6,7,8,9,10,11,12,13,14,15,16,17,18,19},
	{1,2,3,4,5,6,7,8,9,10,11,12,13,14,15,16,17,18,19},
	{2,4,6,7,8,9,10,11,12,13,14,15,16,17,18,20},
	{1,2,3,4,5,6,7,8,9,12,13,14,15,16,17,18,19,20},
	{2,4,6,7,8,9,10,11,12,13,14,15,16,17,18,20},
	{2,4,6,7,8,9,10,11,12,13,14,15,16,17,18,20},
	{2,4,6,7,8,9,10,11,12,13,14,15,16,17,18,20},
	{1,2,3,4,5,6,7,8,9,10,11,12,13,14,15,16,17,18,19},
	{1,2,3,4,5,6,7,8,9,12,13,14,15,16,17,18,19,20},
	{1,2,3,4,5,6,7,8,9,12,13,14,15,16,17,18,19,20},
	{2,4,6,7,8,9,10,11,12,13,14,15,16,17,18,20},
	{1,2,3,4,5,6,7,8,9,10,11,12,13,14,15,16,17,18,19},
	{1,2,3,4,5,6,7,8,9,12,13,14,15,16,17,18,19,20},
	{1,2,3,4,5,6,7,8,9,12,13,14,15,16,17,18,19,20},
	{}];

POTENTIAL_ACT = [{2,3,4,6,7,8,9,11,15,16,17,19,20,21},
	{2,3,4,5,6,7,8,9,10,11,12,13,14,15,16,17,18,19,20,21},
	{2,3,4,6,7,8,9,11,15,16,17,19,20,21},
	{2,3,4,5,6,7,8,9,10,11,12,13,14,15,16,17,18,19,20,21},
	{2,3,4,6,7,8,9,11,15,16,17,19,20,21},
	{2,3,4,5,6,7,8,9,10,11,12,13,14,15,16,17,18,19,20,21},
	{2,3,4,5,6,7,8,9,10,11,12,13,14,15,16,17,18,19,20,21},
	{2,3,4,5,6,7,8,9,10,11,12,13,14,15,16,17,18,19,20,21},
	{2,3,4,5,6,7,8,9,10,11,12,13,14,15,16,17,18,19,20,21},
	{2,3,4,5,7,8,9,10,12,13,14,15,18,19},
	{2,3,4,5,7,8,9,10,12,13,14,15,18,19},
	{2,3,4,5,6,7,8,9,10,11,12,13,14,15,16,17,18,19,20,21},
	{2,3,4,5,6,7,8,9,10,11,12,13,14,15,16,17,18,19,20,21},
	{2,3,4,5,6,7,8,9,10,11,12,13,14,15,16,17,18,19,20,21},
	{2,3,4,5,6,7,8,9,10,11,12,13,14,15,16,17,18,19,20,21},
	{2,3,4,5,6,7,8,9,10,11,12,13,14,15,16,17,18,19,20,21},
	{4,5,6,8,9,10,11,12,13,14,15,16,17,18,19,20,21},
	{2,3,4,5,6,7,8,9,10,11,12,13,14,15,16,17,18,19,20,21},
	{2,3,4,6,7,8,9,11,15,16,17,19,20,21},
	{2,3,5,6,7,10,11,12,13,14,16,17,18,20,21}];
